2,3
3,8
5,4
7,1
8,7
10,3
12,0
13,7
15,4
17,1
18,9
21,1
23,3
25,5
27,7
29,9
32,1
34,3
36,5
38,7
41,0
43,2
45,4
47,6
49,8
52,0
54,2
56,4
58,6
60,8
63,1
65,3
67,5
69,7
71,9
74,1
76,3
78,5
80,7
82,9
83,4
83,4
83,4
83,4
83,4
83,4
83,4
83,4
83,4
83,4
83,4
83,4
83,4
83,4
83,4
83,4
83,4
83,4
83,4
83,4
83,4
83,4
83,4
83,4
83,4
83,4
83,4
83,4
83,4
83,4
83,4
83,4
83,4
83,4
83,4
83,4
83,4
83,4
83,4
83,4
83,4
83,4
83,4
83,4
0,0
0,0
0,0
